desiredZ=[1];
nNurses = 101;
hours = 38;
demand = [0 2 17 12 2 11 23 9 14 10 12 1 22 14 8 7 4 23 21 9 15 13 5 0 18 4 14 0 0 4 16 15 25 16 13 0 24 12];
minHours = 10;
maxHours = 22;
maxConsec = 18;
maxPresence = 23;